Route 1: 53 55 78 8 21 44 68 24 50 26 57 58 64 66 73 17 45 38 40 6 27 32 13 7 5 16 22 11 10 14 20 12 25 4 3 2 54 30 46 70 34 63 36 33 28 52 51 1 59 37 15 29 31 71 48 42 60 67 18

Route 2: 79 80 23 41 61 74 62 134 35 97 117 81 120 49 72 19 118 129 43 132 88 103 139 140 9 65 77 92 75 69 47 56 89 90 84 93 91 85 87 82 83 76 108 100 104 94 39 116 96 122 107 95 127 114 86 99

Route 3: 144 131 115 152 147 155 172 175 137 125 143 119 191 184 145 200 167 178 185 101 112 102 126 105 98 109 110 106 149 135 121 123 189 170 180 153 113 165 111

Route 4: 168 186 196 138 128 194 197 146 159 193 151 150 124 136 157 166 141 161 130 198 176 142 133 173 187 156 181 183 174 154 169 148 163 171 164

Route 5: 192 179 162 177 188 182 190 158 199 160 195

Vehicles: 5

Distance: 4462.20

